(set-logic QF_S)
(declare-fun var0 () String)
(assert (str.in.re var0 (re.++ (re.* (re.+ (str.to.re "000"))) (re.++ (re.+ (re.* (str.to.re "111"))) (re.++ (re.+ (re.* (str.to.re "222"))) (re.++ (re.+ (re.union (str.to.re "333") (str.to.re "44"))) (re.++ (re.* (re.* (str.to.re "555"))) (re.++ (re.+ (re.+ (str.to.re "66"))) (re.++ (re.union (re.union (str.to.re "77") (str.to.re "888")) (re.union (str.to.re "99") (str.to.re "aa"))) (re.++ (re.+ (re.union (str.to.re "bb") (str.to.re "c"))) (re.++ (re.+ (re.* (str.to.re "ddd"))) (re.++ (re.* (re.+ (str.to.re "ee"))) (re.++ (re.+ (re.* (str.to.re "f"))) (re.++ (re.union (re.+ (str.to.re "g")) (re.+ (str.to.re "hh"))) (re.++ (re.union (re.+ (str.to.re "ii")) (re.+ (str.to.re "jj"))) (re.++ (re.* (re.+ (str.to.re "kk"))) (re.++ (re.+ (re.union (str.to.re "lll") (str.to.re "mmm"))) (re.++ (re.* (re.union (str.to.re "nnn") (str.to.re "oo"))) (re.++ (re.union (re.* (str.to.re "p")) (re.* (str.to.re "qqq"))) (re.++ (re.* (re.* (str.to.re "rrr"))) (re.++ (re.+ (re.+ (str.to.re "s"))) (re.++ (re.+ (re.+ (str.to.re "t"))) (re.++ (re.* (re.union (str.to.re "uu") (str.to.re "vvv"))) (re.++ (re.+ (re.+ (str.to.re "ww"))) (re.++ (re.* (re.+ (str.to.re "xxx"))) (re.++ (re.+ (re.union (str.to.re "yyy") (str.to.re "z"))) (re.++ (re.union (re.union (str.to.re "AAA") (str.to.re "BBB")) (re.union (str.to.re "CCC") (str.to.re "DD"))) (re.++ (re.union (re.+ (str.to.re "E")) (re.+ (str.to.re "FFF"))) (re.++ (re.* (re.* (str.to.re "GG"))) (re.++ (re.+ (re.+ (str.to.re "HHH"))) (re.++ (re.* (re.* (str.to.re "II"))) (re.++ (re.+ (re.* (str.to.re "J"))) (re.++ (re.* (re.union (str.to.re "KKK") (str.to.re "L"))) (re.++ (re.+ (re.* (str.to.re "MMM"))) (re.++ (re.+ (re.union (str.to.re "NNN") (str.to.re "OOO"))) (re.++ (re.+ (re.* (str.to.re "P"))) (re.++ (re.* (re.+ (str.to.re "Q"))) (re.++ (re.* (re.+ (str.to.re "R"))) (re.++ (re.+ (re.* (str.to.re "SSS"))) (re.++ (re.+ (re.+ (str.to.re "TT"))) (re.++ (re.* (re.+ (str.to.re "UU"))) (re.++ (re.* (re.union (str.to.re "V") (str.to.re "W"))) (re.++ (re.+ (re.* (str.to.re "XXX"))) (re.++ (re.* (re.union (str.to.re "YYY") (str.to.re "Z"))) (re.++ (re.+ (re.union (str.to.re "!!!") (str.to.re """"))) (re.++ (re.union (re.* (str.to.re "###")) (re.* (str.to.re "$"))) (re.++ (re.+ (re.+ (str.to.re "%"))) (re.++ (re.union (re.* (str.to.re "&&")) (re.* (str.to.re "'"))) (re.++ (re.+ (re.union (str.to.re "(((") (str.to.re ")))"))) (re.++ (re.+ (re.union (str.to.re "**") (str.to.re "+++"))) (re.++ (re.* (re.* (str.to.re ",,,"))) (re.++ (re.union (re.* (str.to.re "---")) (re.* (str.to.re "."))) (re.++ (re.union (re.* (str.to.re "///")) (re.* (str.to.re ":"))) (re.++ (re.union (re.union (str.to.re ";;;") (str.to.re "<<")) (re.union (str.to.re "=") (str.to.re ">>>"))) (re.++ (re.* (re.union (str.to.re "??") (str.to.re "@@"))) (re.++ (re.+ (re.* (str.to.re "["))) (re.++ (re.+ (re.union (str.to.re "\\\\") (str.to.re "]"))) (re.++ (re.* (re.union (str.to.re "^") (str.to.re "___"))) (re.++ (re.+ (re.* (str.to.re "``"))) (re.++ (re.union (re.+ (str.to.re "{")) (re.+ (str.to.re "||"))) (re.++ (re.+ (re.union (str.to.re "}}}") (str.to.re "~~~"))) (re.++ (re.union (re.+ (str.to.re "000")) (re.+ (str.to.re "11"))) (re.++ (re.* (re.union (str.to.re "222") (str.to.re "33"))) (re.++ (re.+ (re.union (str.to.re "444") (str.to.re "55"))) (re.++ (re.+ (re.* (str.to.re "666"))) (re.++ (re.union (re.+ (str.to.re "777")) (re.+ (str.to.re "88"))) (re.++ (re.union (re.* (str.to.re "9")) (re.* (str.to.re "a"))) (re.++ (re.* (re.* (str.to.re "bbb"))) (re.++ (re.* (re.* (str.to.re "ccc"))) (re.++ (re.union (re.* (str.to.re "dd")) (re.* (str.to.re "eee"))) (re.++ (re.+ (re.* (str.to.re "ff"))) (re.++ (re.union (re.* (str.to.re "g")) (re.* (str.to.re "hhh"))) (re.* (re.union (str.to.re "ii") (str.to.re "j")))))))))))))))))))))))))))))))))))))))))))))))))))))))))))))))))))))))))))
(check-sat)